174931
39,32,15,43,21,18,47,23,30,49,7,52,64,3,67,58,82,77,60,24,41,22,54,2,56,11,42,80,48,33,1,29,78,5,40,14,68,51,62,38,27,34,19,57,76,8,70,53,45,72,17,12,36,44,61,9,69,25,13,66,75,79,28,0,63,35,65,20,4,31,10,74,81,73,26,6,16,55,71,50,46,59,37
